4
5
0 825 290 773 690 
825 0 893 343 530 
290 893 0 723 571 
773 343 723 0 209 
690 530 571 209 0 
0 586 268 64 900 
586 0 666 582 636 
268 666 0 206 758 
64 582 206 0 851 
900 636 758 851 0 
0 276 952 406 713 
276 0 699 224 447 
952 699 0 767 262 
406 224 767 0 505 
713 447 262 505 0 
0 222 278 683 393 
222 0 128 536 567 
278 128 0 418 538 
683 536 418 0 793 
393 567 538 793 0 
